TYPE : Vertex Cover
DIMENSION: 26
EDGE_DATA_SECTION:
0 10
0 24
1 8
1 12
1 16
1 17
1 20
1 22
2 6
2 10
2 17
2 18
2 20
2 21
3 7
3 14
3 15
3 17
3 22
4 8
4 12
4 13
4 15
4 18
4 22
4 25
5 8
5 9
5 14
5 18
5 20
6 8
6 10
6 12
6 18
7 20
7 22
8 16
9 14
9 15
9 19
9 23
10 11
10 12
10 16
11 14
11 20
11 23
12 19
12 21
12 25
13 16
13 24
13 25
16 22
16 25
17 18
17 19
17 24
19 20
19 24
20 25
21 24
22 24
-1
VERTEX_DEGREE:
2.0 6.0 6.0 5.0 7.0 5.0 5.0 3.0 5.0 5.0 6.0 4.0 7.0 4.0 4.0 3.0 6.0 6.0 5.0 5.0 7.0 3.0 6.0 2.0 6.0 5.0
VERTEX_COVER:
1 2 3 4 5 6 7 9 10 11 12 16 17 19 24 25
EOF
